11
2147483647 23 78 12 34 15 14 44 9 57 53 
23 2147483647 62 22 95 91 79 47 81 39 32 
78 62 2147483647 38 80 56 35 47 3 13 60 
12 22 38 2147483647 65 87 7 33 57 15 67 
34 95 80 65 2147483647 52 21 19 79 31 62 
15 91 56 87 52 2147483647 45 22 36 4 28 
14 79 35 7 21 45 2147483647 42 17 2 90 
44 47 47 33 19 22 42 2147483647 3 54 39 
9 81 3 57 79 36 17 3 2147483647 24 41 
57 39 13 15 31 4 2 54 24 2147483647 35 
53 32 60 67 62 28 90 39 41 35 2147483647 
